NAME : LPS-n20-m62
COMMENT : (Lartu-Peter-Santi Plot, instance 6862 out of 39200. 20 customers.)
TYPE : CVRP
DIMENSION : 20
EDGE_WEIGHT_TYPE : EUC_2D
CAPACITY : 107
NODE_COORD_SECTION
 1 55 54
 2 79 15
 3 35 67
 4 1 81
 5 55 63
 6 52 16
 7 44 64
 8 73 15
 9 23 65
 10 76 61
 11 97 55
 12 20 17
 13 42 53
 14 27 73
 15 50 15
 16 6 63
 17 74 70
 18 69 15
 19 70 32
 20 4 37
DEMAND_SECTION
1 0
2 94
3 97
4 27
5 24
6 26
7 20
8 6
9 58
10 33
11 47
12 56
13 95
14 100
15 20
16 39
17 61
18 31
19 106
20 38
DEPOT_SECTION
 1
 -1
EOF
